peakDumbCharging = 18500; 
Machine = anon_enum(16); 
machineSpeed = [3700,3700,3700,3700,3700,3700,3700,3700,3700,3700,3700,3700,3700,3700,3700,3700]; 
machineLoad = [3700,3700,3700,3700,3700,3700,3700,3700,3700,3700,3700,3700,3700,3700,3700,3700]; 
Car = anon_enum(19); 
demandCar = [400,9720,10960,5440,12880,9080,1360,2480,720,3560,16040,18600,20480,7400,21400,8040,2040,6760,12480]; 
arrivalCar = [74,71,66,65,61,59,56,56,55,55,52,43,42,39,36,35,33,32,27]; 
departureCar = [75,75,71,68,66,63,58,58,57,58,60,50,51,42,47,40,35,36,32]; 
